N = 11;
H = 5;
T = 2;

avail = array3d(1..N, 1..H, 1..T, [2, 8, 10, 8, 2, 4, 6, 6, 9, 7, 5, 5, 7, 6, 8, 0, 7, 10, 1, 4, 6, 10, 8, 8, 3, 8, 4, 6, 6, 9, 5, 1, 7, 0, 4, 4, 5, 8, 6, 10, 5, 8, 1, 6, 3, 9, 1, 10, 1, 0, 2, 5, 9, 7, 8, 3, 10, 5, 8, 3, 9, 6, 7, 5, 10, 3, 10, 9, 9, 3, 9, 1, 3, 5, 0, 2, 0, 5, 4, 4, 3, 10, 10, 4, 9, 9, 4, 8, 7, 1, 4, 9, 9, 2, 5, 9, 1, 6, 8, 2, 6, 10, 0, 6, 9, 4, 4, 6, 4, 9]);

r = array2d(1..H, 1..T, [4, 1, 2, 3, 2, 1, 2, 1, 3, 1]);
